; benchmark generated from python API
(set-info :status unknown)
(declare-fun x_month () Int)
(declare-fun x_day () Int)
(declare-fun x_year () Int)
(declare-fun y_month () Int)
(declare-fun y_day () Int)
(declare-fun y_year () Int)
(assert
 (>= x_month 1))
(assert
 (<= x_month 12))
(assert
 (>= x_day 1))
(assert
 (<= x_day 31))
(assert
 (let (($x331 (<= x_day 28)))
 (let (($x318 (<= x_day 29)))
 (let (($x297 (= (mod x_year 400) 0)))
 (let (($x656 (= (mod x_year 4) 0)))
 (let (($x132 (ite (or (and $x656 (and (distinct (mod x_year 100) 0) true)) $x297) $x318 $x331)))
 (let (($x756 (= x_month 2)))
 (ite $x756 $x132 true))))))))
(assert
 (let (($x542 (<= x_day 30)))
 (let (($x161 (= x_month 6)))
 (let (($x775 (or (= x_month 4) $x161 (= x_month 9) (= x_month 11))))
 (ite $x775 $x542 true)))))
(assert
 (>= y_month 1))
(assert
 (<= y_month 12))
(assert
 (>= y_day 1))
(assert
 (<= y_day 31))
(assert
 (let (($x743 (<= y_day 28)))
 (let (($x414 (<= y_day 29)))
 (let (($x520 (= (mod y_year 400) 0)))
 (let (($x686 (= (mod y_year 4) 0)))
 (let (($x498 (ite (or (and $x686 (and (distinct (mod y_year 100) 0) true)) $x520) $x414 $x743)))
 (let (($x184 (= y_month 2)))
 (ite $x184 $x498 true))))))))
(assert
 (let (($x510 (<= y_day 30)))
 (let (($x179 (= y_month 6)))
 (let (($x176 (or (= y_month 4) $x179 (= y_month 9) (= y_month 11))))
 (ite $x176 $x510 true)))))
(assert
 (let (($x669 (= x_year 2023)))
 (let (($x664 (and $x669 (or (> x_month 6) (and (= x_month 6) (>= x_day 1))))))
 (or (> x_year 2023) $x664))))
(assert
 (let (($x29 (or (and (= (mod 2000 4) 0) (and (distinct (mod 2000 100) 0) true)) (= (mod 2000 400) 0))))
 (let ((?x36 (ite (= 3 2) (ite $x29 31 31) (ite (= 3 1) (ite $x29 0 0) 0))))
 (let ((?x40 (ite $x29 60 59)))
 (let ((?x41 (ite (= 3 3) ?x40 ?x36)))
 (let ((?x46 (ite (= 3 4) (ite $x29 91 90) ?x41)))
 (let ((?x52 (ite (= 3 5) (ite $x29 121 120) ?x46)))
 (let ((?x58 (ite (= 3 6) (ite $x29 152 151) ?x52)))
 (let ((?x64 (ite (= 3 7) (ite $x29 182 181) ?x58)))
 (let ((?x70 (ite (= 3 8) (ite $x29 213 212) ?x64)))
 (let ((?x76 (ite (= 3 9) (ite $x29 244 243) ?x70)))
 (let ((?x82 (ite (= 3 10) (ite $x29 274 273) ?x76)))
 (let ((?x88 (ite (= 3 11) (ite $x29 305 304) ?x82)))
 (let ((?x16 (- (+ (* 365 (- 2000 1)) (div (- 2000 1) 4)) (div (- 2000 1) 100))))
 (let ((?x95 (+ (+ ?x16 (div (- 2000 1) 400)) (ite (= 3 12) (ite $x29 335 334) ?x88))))
 (let ((?x97 (+ ?x95 (- 1 1))))
 (let ((?x127 (+ (mod (- (+ x_month (+ (* 0 12) 1)) 1) 12) 1)))
 (let ((?x236 (ite (or (= ?x127 4) (= ?x127 6) (= ?x127 9) (= ?x127 11)) 30 31)))
 (let ((?x393 (+ 0 (div (- (+ x_month (+ (* 0 12) 1)) 1) 12))))
 (let ((?x546 (+ x_year ?x393)))
 (let (($x311 (or (and (= (mod ?x546 4) 0) (and (distinct (mod ?x546 100) 0) true)) (= (mod ?x546 400) 0))))
 (let ((?x607 (ite (= ?x127 2) (ite $x311 29 28) ?x236)))
 (let ((?x688 (ite (< x_day 1) 1 (ite (> x_day ?x607) ?x607 x_day))))
 (let (($x826 (and (= (mod (+ ?x546 (* (div 0 146097) 400)) 4) 0) (and (distinct (mod (+ ?x546 (* (div 0 146097) 400)) 100) 0) true))))
 (let (($x2424 (or $x826 (= (mod (+ ?x546 (* (div 0 146097) 400)) 400) 0))))
 (let ((?x206 (ite (= 2 ?x127) (ite $x2424 31 31) (ite (= 1 ?x127) (ite $x2424 0 0) 0))))
 (let ((?x155 (ite (= 4 ?x127) (ite $x2424 91 90) (ite (= 3 ?x127) (ite $x2424 60 59) ?x206))))
 (let ((?x1068 (ite (= 6 ?x127) (ite $x2424 152 151) (ite (= 5 ?x127) (ite $x2424 121 120) ?x155))))
 (let ((?x792 (ite (= 8 ?x127) (ite $x2424 213 212) (ite (= 7 ?x127) (ite $x2424 182 181) ?x1068))))
 (let ((?x563 (ite (= 10 ?x127) (ite $x2424 274 273) (ite (= 9 ?x127) (ite $x2424 244 243) ?x792))))
 (let ((?x582 (ite (= 12 ?x127) (ite $x2424 335 334) (ite (= 11 ?x127) (ite $x2424 305 304) ?x563))))
 (let ((?x317 (+ (* 365 (- (+ ?x546 (* (div 0 146097) 400)) 1)) (div (- (+ ?x546 (* (div 0 146097) 400)) 1) 4))))
 (let ((?x782 (+ (- ?x317 (div (- (+ ?x546 (* (div 0 146097) 400)) 1) 100)) (div (- (+ ?x546 (* (div 0 146097) 400)) 1) 400))))
 (let ((?x453 (+ (+ (- (+ (+ ?x782 ?x582) (- ?x688 1)) ?x97) (mod 0 146097)) ?x97)))
 (let ((?x790 (mod ?x453 146097)))
 (let ((?x795 (div ?x790 36524)))
 (let ((?x333 (ite (<= 4 ?x795) 3 ?x795)))
 (let ((?x306 (- ?x790 (* ?x333 36524))))
 (let ((?x1460 (mod ?x306 1461)))
 (let ((?x299 (div ?x1460 365)))
 (let ((?x807 (ite (<= 4 ?x299) 3 ?x299)))
 (let ((?x339 (+ (+ (* (div ?x453 146097) 400) (* ?x333 100)) (* (div ?x306 1461) 4))))
 (let ((?x2344 (+ (+ ?x339 ?x807) 1)))
 (let (($x173 (or (and (= (mod ?x2344 4) 0) (and (distinct (mod ?x2344 100) 0) true)) (= (mod ?x2344 400) 0))))
 (let ((?x2528 (- ?x1460 (* ?x807 365))))
 (let ((?x467 (ite $x173 31 31)))
 (let (($x567 (>= ?x2528 ?x467)))
 (let ((?x514 (ite $x567 (+ (- ?x2528 ?x467) 1) (+ (- ?x2528 (ite $x173 0 0)) 1))))
 (let ((?x625 (ite $x173 60 59)))
 (let (($x746 (>= ?x2528 ?x625)))
 (let ((?x689 (ite $x173 91 90)))
 (let (($x1323 (>= ?x2528 ?x689)))
 (let ((?x869 (ite $x1323 (+ (- ?x2528 ?x689) 1) (ite $x746 (+ (- ?x2528 ?x625) 1) ?x514))))
 (let ((?x960 (ite $x173 121 120)))
 (let (($x961 (>= ?x2528 ?x960)))
 (let ((?x2643 (ite $x173 152 151)))
 (let (($x690 (>= ?x2528 ?x2643)))
 (let ((?x784 (ite $x690 (+ (- ?x2528 ?x2643) 1) (ite $x961 (+ (- ?x2528 ?x960) 1) ?x869))))
 (let ((?x210 (ite $x173 182 181)))
 (let (($x277 (>= ?x2528 ?x210)))
 (let ((?x957 (ite $x173 213 212)))
 (let (($x119 (>= ?x2528 ?x957)))
 (let ((?x802 (ite $x119 (+ (- ?x2528 ?x957) 1) (ite $x277 (+ (- ?x2528 ?x210) 1) ?x784))))
 (let ((?x108 (ite $x173 244 243)))
 (let (($x140 (>= ?x2528 ?x108)))
 (let ((?x462 (ite $x173 274 273)))
 (let (($x335 (>= ?x2528 ?x462)))
 (let ((?x379 (ite $x335 (+ (- ?x2528 ?x462) 1) (ite $x140 (+ (- ?x2528 ?x108) 1) ?x802))))
 (let ((?x471 (ite $x173 305 304)))
 (let (($x723 (>= ?x2528 ?x471)))
 (let ((?x234 (ite $x173 335 334)))
 (let (($x380 (>= ?x2528 ?x234)))
 (let ((?x112 (ite $x380 (+ (- ?x2528 ?x234) 1) (ite $x723 (+ (- ?x2528 ?x471) 1) ?x379))))
 (let (($x556 (= 0 0)))
 (let ((?x298 (ite $x556 ?x688 ?x112)))
 (let ((?x633 (ite $x961 5 (ite $x1323 4 (ite $x746 3 (ite $x567 2 1))))))
 (let ((?x578 (ite $x140 9 (ite $x119 8 (ite $x277 7 (ite $x690 6 ?x633))))))
 (let ((?x810 (+ (ite $x556 ?x127 (ite $x380 12 (ite $x723 11 (ite $x335 10 ?x578)))) (+ (* 0 12) 0))))
 (let ((?x850 (- ?x810 1)))
 (let ((?x282 (+ (mod ?x850 12) 1)))
 (let ((?x153 (ite (or (= ?x282 4) (= ?x282 6) (= ?x282 9) (= ?x282 11)) 30 31)))
 (let (($x608 (= (mod (+ (ite $x556 ?x546 ?x2344) (+ 0 (div ?x850 12))) 400) 0)))
 (let (($x740 (and (distinct (mod (+ (ite $x556 ?x546 ?x2344) (+ 0 (div ?x850 12))) 100) 0) true)))
 (let (($x544 (= (mod (+ (ite $x556 ?x546 ?x2344) (+ 0 (div ?x850 12))) 4) 0)))
 (let ((?x693 (ite (= ?x282 2) (ite (or (and $x544 $x740) $x608) 29 28) ?x153)))
 (let ((?x128 (ite (< ?x298 1) 1 (ite (> ?x298 ?x693) ?x693 ?x298))))
 (let ((?x806 (+ (ite $x556 ?x546 ?x2344) (+ 0 (div ?x850 12)))))
 (let ((?x496 (+ ?x806 (* (div 15 146097) 400))))
 (let (($x691 (or (and (= (mod ?x496 4) 0) (and (distinct (mod ?x496 100) 0) true)) (= (mod ?x496 400) 0))))
 (let ((?x142 (ite (= 2 ?x282) (ite $x691 31 31) (ite (= 1 ?x282) (ite $x691 0 0) 0))))
 (let ((?x253 (ite (= 4 ?x282) (ite $x691 91 90) (ite (= 3 ?x282) (ite $x691 60 59) ?x142))))
 (let ((?x366 (ite (= 6 ?x282) (ite $x691 152 151) (ite (= 5 ?x282) (ite $x691 121 120) ?x253))))
 (let ((?x446 (ite (= 8 ?x282) (ite $x691 213 212) (ite (= 7 ?x282) (ite $x691 182 181) ?x366))))
 (let ((?x395 (ite (= 10 ?x282) (ite $x691 274 273) (ite (= 9 ?x282) (ite $x691 244 243) ?x446))))
 (let ((?x448 (ite (= 12 ?x282) (ite $x691 335 334) (ite (= 11 ?x282) (ite $x691 305 304) ?x395))))
 (let ((?x231 (- (+ (* 365 (- ?x496 1)) (div (- ?x496 1) 4)) (div (- ?x496 1) 100))))
 (let ((?x369 (- (+ (+ (+ ?x231 (div (- ?x496 1) 400)) ?x448) (- ?x128 1)) ?x97)))
 (let ((?x603 (+ (+ ?x369 (mod 15 146097)) ?x97)))
 (let ((?x449 (mod ?x603 146097)))
 (let ((?x602 (div ?x449 36524)))
 (let ((?x330 (ite (<= 4 ?x602) 3 ?x602)))
 (let ((?x768 (- ?x449 (* ?x330 36524))))
 (let ((?x217 (mod ?x768 1461)))
 (let ((?x438 (div ?x217 365)))
 (let ((?x513 (ite (<= 4 ?x438) 3 ?x438)))
 (let ((?x738 (+ (+ (* (div ?x603 146097) 400) (* ?x330 100)) (* (div ?x768 1461) 4))))
 (let ((?x346 (+ (+ ?x738 ?x513) 1)))
 (let (($x759 (or (and (= (mod ?x346 4) 0) (and (distinct (mod ?x346 100) 0) true)) (= (mod ?x346 400) 0))))
 (let ((?x504 (- ?x217 (* ?x513 365))))
 (let ((?x699 (ite $x759 31 31)))
 (let (($x1170 (>= ?x504 ?x699)))
 (let ((?x474 (ite $x1170 (+ (- ?x504 ?x699) 1) (+ (- ?x504 (ite $x759 0 0)) 1))))
 (let ((?x640 (ite $x759 60 59)))
 (let (($x617 (>= ?x504 ?x640)))
 (let ((?x748 (ite $x759 91 90)))
 (let (($x499 (>= ?x504 ?x748)))
 (let ((?x562 (ite $x499 (+ (- ?x504 ?x748) 1) (ite $x617 (+ (- ?x504 ?x640) 1) ?x474))))
 (let ((?x180 (ite $x759 121 120)))
 (let (($x698 (>= ?x504 ?x180)))
 (let ((?x134 (ite $x759 152 151)))
 (let (($x458 (>= ?x504 ?x134)))
 (let ((?x528 (ite $x458 (+ (- ?x504 ?x134) 1) (ite $x698 (+ (- ?x504 ?x180) 1) ?x562))))
 (let ((?x494 (ite $x759 182 181)))
 (let (($x149 (>= ?x504 ?x494)))
 (let ((?x668 (ite $x759 213 212)))
 (let (($x223 (>= ?x504 ?x668)))
 (let ((?x583 (ite $x223 (+ (- ?x504 ?x668) 1) (ite $x149 (+ (- ?x504 ?x494) 1) ?x528))))
 (let ((?x744 (ite $x759 244 243)))
 (let (($x408 (>= ?x504 ?x744)))
 (let ((?x113 (ite $x759 274 273)))
 (let (($x452 (>= ?x504 ?x113)))
 (let ((?x386 (ite $x452 (+ (- ?x504 ?x113) 1) (ite $x408 (+ (- ?x504 ?x744) 1) ?x583))))
 (let ((?x589 (ite $x759 305 304)))
 (let (($x535 (>= ?x504 ?x589)))
 (let ((?x729 (ite $x759 335 334)))
 (let (($x547 (>= ?x504 ?x729)))
 (let ((?x310 (ite $x547 (+ (- ?x504 ?x729) 1) (ite $x535 (+ (- ?x504 ?x589) 1) ?x386))))
 (let (($x130 (= 0 15)))
 (let ((?x774 (ite $x698 5 (ite $x499 4 (ite $x617 3 (ite $x1170 2 1))))))
 (let ((?x476 (ite $x408 9 (ite $x223 8 (ite $x149 7 (ite $x458 6 ?x774))))))
 (let ((?x534 (ite $x547 12 (ite $x535 11 (ite $x452 10 ?x476)))))
 (and (= (ite $x130 ?x806 ?x346) y_year) (= (ite $x130 ?x282 ?x534) y_month) (= (ite $x130 ?x128 ?x310) y_day)))))))))))))))))))))))))))))))))))))))))))))))))))))))))))))))))))))))))))))))))))))))))))))))))))))))))))))))))))))))))))))))))))))))))))))))
(assert
 (let (($x121 (= y_year 2023)))
(let (($x407 (and $x121 (or (> y_month 6) (and (= y_month 6) (>= y_day 1))))))
(or (> y_year 2023) $x407))))
(check-sat)
